row=11;
column=11;
Board=[|0,0,6,0,0,0,0,0,0,0,0|0,0,0,0,0,0,0,0,0,5,0|0,0,0,0,0,0,0,0,0,0,0|0,0,0,0,0,0,4,5,0,0,0|0,0,0,0,0,0,0,0,0,0,6|0,0,0,0,0,2,0,0,0,0,0|0,0,0,0,0,6,0,0,0,0,0|0,5,0,0,0,3,0,0,0,0,0|0,0,0,0,0,0,0,0,0,0,0|0,0,0,0,0,0,0,0,0,0,0|0,0,0,0,0,0,0,0,1,0,0|];
right = [4,2,1,3,2,3,1,3,0,0,1];
bottom = [1,2,2,1,2,3,1,2,2,1,3];
